NAME : sim161.126722.tour
COMMENT : Length = 126722
COMMENT : Found by LKH [Keld Helsgaun] Sat Sep 15 13:46:13 2018
TYPE : TOUR
DIMENSION : 161
TOUR_SECTION
1
58
18
13
4
49
50
8
11
2
141
3
92
37
154
7
16
153
42
145
114
21
77
73
60
55
110
134
129
63
27
66
76
75
67
156
102
71
43
62
17
133
83
161
52
108
59
121
29
157
32
152
35
36
130
88
84
46
117
86
51
124
139
28
146
106
41
109
81
93
142
103
148
113
6
151
98
47
143
101
70
5
54
65
107
159
99
15
111
38
89
87
39
144
33
79
26
120
155
22
116
23
64
126
48
30
82
132
127
9
10
104
80
24
34
97
31
138
94
137
61
44
122
140
25
135
123
20
12
14
45
147
91
160
74
100
72
149
95
115
150
40
90
105
53
56
19
112
57
136
96
131
119
85
68
125
69
158
128
78
118
-1
EOF
